(set-logic HORN)
(declare-fun state (Int Int Int (Array Int Int) Int (Array Int Int) Int Int Int Int (Array Int Int) (Array Int Int) (Array Int Int) Int Int Int (Array Int Int) (Array Int Int) Bool Bool Bool Int Int Int Int Int) Bool)
(assert (forall ((|A_8| Int) (|.y.16| Int) (|.y.17| Int) (|B_8| (Array Int Int)) (|C_7| Int) (|D_7| (Array Int Int)) (|E_7| Int) (|F_7| Int) (|.y.18| Int) (|.y.19| Int) (|G_7| (Array Int Int)) (|.y.20| (Array Int Int)) (|.y.21| (Array Int Int)) (|H_7| Int) (|.y.22| Int) (|.y.23| Int) (|.y.24| (Array Int Int)) (|.y.25| (Array Int Int)) (|.loc.26| Bool) (|.loc.27| Bool) (|.loc.28| Bool) (|L_8| Int) (|J_8| Int) (|U_0| Int) (|J_9| Int) (|L_9| Int) (|.x.61| (Array Int Int)) (|.x.62| Int) (|.x.63| (Array Int Int)) (|.x.64| Int) (|M_7| Int) (|.loc.41| Bool) (|.y.33| (Array Int Int)) (|.y.36| Int) (|.loc.42| Bool) (|.loc.43| Bool) (|.y.37| Int) (|.y.39| (Array Int Int)) (|.x.60| Int) (|.y.40| (Array Int Int)) (|.y.38| Int) (|.y.31| Int) (|.y.29| Int) (|.y.32| Int) (|.y.30| Int) (|.y.35| (Array Int Int)) (|.y.34| (Array Int Int)) (|.xtv.1| Int) (|.xtv.2| Int) (|.xtv.3| Int) (|.xpv.1| Int) (|.xpv.2| Int)) (=> (and (and (not .loc.26) (not .loc.27)) (not .loc.28)) (state |A_8| |.y.16| |.y.17| |B_8| |C_7| |D_7| |E_7| |F_7| |.y.18| |.y.19| |G_7| |.y.20| |.y.21| |H_7| |.y.22| |.y.23| |.y.24| |.y.25| |.loc.26| |.loc.27| |.loc.28| |L_8| |J_8| |U_0| |J_9| |L_9|))))
(assert (forall ((|A_8| Int) (|.y.16| Int) (|.y.17| Int) (|B_8| (Array Int Int)) (|C_7| Int) (|D_7| (Array Int Int)) (|E_7| Int) (|F_7| Int) (|.y.18| Int) (|.y.19| Int) (|G_7| (Array Int Int)) (|.y.20| (Array Int Int)) (|.y.21| (Array Int Int)) (|H_7| Int) (|.y.22| Int) (|.y.23| Int) (|.y.24| (Array Int Int)) (|.y.25| (Array Int Int)) (|.loc.26| Bool) (|.loc.27| Bool) (|.loc.28| Bool) (|L_8| Int) (|J_8| Int) (|U_0| Int) (|J_9| Int) (|L_9| Int) (|.x.61| (Array Int Int)) (|.x.62| Int) (|.x.63| (Array Int Int)) (|.x.64| Int) (|M_7| Int) (|.loc.41| Bool) (|.y.33| (Array Int Int)) (|.y.36| Int) (|.loc.42| Bool) (|.loc.43| Bool) (|.y.37| Int) (|.y.39| (Array Int Int)) (|.x.60| Int) (|.y.40| (Array Int Int)) (|.y.38| Int) (|.y.31| Int) (|.y.29| Int) (|.y.32| Int) (|.y.30| Int) (|.y.35| (Array Int Int)) (|.y.34| (Array Int Int)) (|.xtv.1| Int) (|.xtv.2| Int) (|.xtv.3| Int) (|.xpv.1| Int) (|.xpv.2| Int)) (=> (and (state |A_8| |.y.16| |.y.17| |B_8| |C_7| |D_7| |E_7| |F_7| |.y.18| |.y.19| |G_7| |.y.20| |.y.21| |H_7| |.y.22| |.y.23| |.y.24| |.y.25| |.loc.26| |.loc.27| |.loc.28| |L_8| |J_8| |U_0| |J_9| |L_9|) (let ((.def_36 (not .loc.26))) (let ((.def_37 (not .loc.27))) (let ((.def_39 (not .loc.28))) (let ((.def_43 (<= H_7 E_7))) (let ((.def_45 (= F_7 .x.62))) (let ((.def_48 (= G_7 .x.63))) (let ((.def_51 (= H_7 .x.64))) (let ((.def_55 (= M_7 0))) (let ((.def_59 (not (<= L_8 0)))) (let ((.def_60 (<= C_7 0))) (let ((.def_62 (<= A_8 0))) (let ((.def_64 (not (<= J_8 0)))) (let ((.def_85 (not .def_60))) (let ((.def_91 (= (+ E_7 (* (- 1) M_7)) (- 1)))) (let ((.def_95 (= C_7 .x.62))) (let ((.def_97 (= D_7 .x.63))) (let ((.def_99 (= F_7 .x.64))) (let ((.def_110 (and .def_55 (and .def_51 (and .def_45 .def_48))))) (let ((.def_113 (not .loc.41))) (let ((.def_117 (<= .y.22 E_7))) (let ((.def_120 (= .y.22 .y.36))) (let ((.def_135 (= .y.33 (store G_7 L_8 (select D_7 J_8))))) (let ((.def_137 (<= F_7 0))) (let ((.def_138 (not .def_137))) (let ((.def_141 (= (+ C_7 (+ E_7 (* (- 1) J_8))) 0))) (let ((.def_145 (= (+ E_7 (+ F_7 (* (- 1) L_8))) 0))) (let ((.def_147 (or .def_59 .def_137))) (let ((.def_149 (or .def_60 .def_64))) (let ((.def_151 (= H_7 .y.36))) (let ((.def_155 (not .loc.42))) (let ((.def_168 (not .loc.43))) (let ((.def_171 (<= .y.23 E_7))) (let ((.def_175 (= .y.24 .y.39))) (let ((.def_198 (= .y.22 .y.37))) (let ((.def_202 (= A_8 .x.60))) (let ((.def_223 (<= .y.19 .y.17))) (let ((.def_301 (<= .y.16 0))) (or (or (and (= B_8 .x.61) (or (or (and (or (or (and (or (or (and (or (and .def_36 (and (and (and (and .def_43 .def_45) .def_48) .def_51) .def_55)) (and (and (and (and (or .def_59 .def_60) (and (or .def_62 .def_64) (and (and (= (+ C_7 (+ E_7 (* (- 1) L_8))) 0) (and (= (+ A_8 (+ E_7 (* (- 1) J_8))) 0) (and (and (not .def_62) (and (not (<= F_7 E_7)) (and .loc.26 (= (select D_7 L_8) (select B_8 J_8))))) .def_85))) .def_91))) .def_95) .def_97) .def_99)) (and (and .loc.28 .def_37) .loc.41)) (and (and (and (= .y.24 .y.33) (and .def_39 (and (and .loc.27 (and .loc.26 .def_110)) .def_113))) .def_117) .def_120)) (and (and (and (and (and (and (and (and .def_113 (and .def_99 (and .def_97 (and .def_95 (and .def_91 (and .def_85 (and .def_37 (and .def_36 (and .loc.28 (not .def_43)))))))))) .def_135) .def_138) .def_141) .def_145) .def_147) .def_149) .def_151)) (and .def_155 .loc.43)) (and (and (= .y.23 .y.37) (and (and (= .y.25 .y.33) (and (and .def_120 (and .def_39 (and .loc.42 (and .loc.41 (and .def_36 (and .loc.27 .def_110)))))) .def_168)) .def_171)) .def_175)) (and (and (not .def_117) (and .def_175 (and .def_168 (and .def_151 (and .def_149 (and .def_147 (and .def_145 (and .def_141 (and .def_138 (and .def_135 (and .def_39 (and .def_99 (and .def_97 (and .def_95 (and .def_91 (and .def_85 (and .loc.42 (and .loc.41 (and .loc.26 .loc.27))))))))))))))))))) .def_198)) .def_202) (and (= .y.20 .y.40) (and (= G_7 .y.39) (and (= .y.19 .y.38) (and (= .y.18 .y.37) (and (= F_7 .y.36) (and (= E_7 .x.64) (and (= .y.16 .x.60) (and (and (= .y.21 .y.33) (and .def_168 (and .def_39 (and .def_113 (and .def_97 (and .def_95 (and .loc.42 (and .def_37 (and .loc.26 .def_55))))))))) .def_223))))))))) (and (= .y.25 .y.40) (and (= .y.23 .y.38) (and (not .def_171) (and .def_198 (and .def_175 (and .def_168 (and .def_151 (and .def_149 (and .def_147 (and .def_145 (and .def_141 (and .def_138 (and .def_135 (and .def_39 (and .def_113 (and .def_99 (and .def_97 (and .def_95 (and .def_91 (and .def_85 (and .loc.42 (and .def_36 (and .loc.27 .def_202))))))))))))))))))))))))) (and (not (<= .y.31 0)) (and (not (<= .x.64 0)) (and (not (<= M_7 0)) (and (not (<= .x.62 0)) (and (not (<= .y.29 0)) (and (not (<= .y.32 0)) (and (= .y.30 0) (and .def_168 (and .def_39 (and .def_155 (and .loc.41 (and .def_37 (and .def_36 .def_202)))))))))))))) (and (= .y.21 .y.35) (and (= .y.20 .y.34) (and (= G_7 .y.33) (and (= .y.19 .y.32) (and (= .y.18 .y.31) (and (= E_7 M_7) (and (= .y.16 .y.29) (and (or .def_64 .def_301) (and (or .def_60 (not (<= U_0 0))) (and (not .def_223) (and (= (+ .y.17 (+ C_7 (* (- 1) U_0))) 0) (and (= (+ .y.16 (+ .y.17 (* (- 1) J_8))) 0) (and (not .def_301) (and (= (+ .y.17 (* (- 1) .y.30)) (- 1)) (and (= .x.63 (store D_7 U_0 L_8)) (and (= .x.61 (store B_8 J_8 L_8)) (and .def_168 (and .def_39 (and .def_99 (and .def_95 (and .def_85 (and .def_155 (and .loc.41 (and .def_37 (and .loc.26 .def_202)))))))))))))))))))))))))))))))))))))))))))))))))))))))))))))))) (state |.x.60| |.y.29| |.y.30| |.x.61| |.x.62| |.x.63| |M_7| |.x.64| |.y.31| |.y.32| |.y.33| |.y.34| |.y.35| |.y.36| |.y.37| |.y.38| |.y.39| |.y.40| |.loc.41| |.loc.42| |.loc.43| |.xtv.1| |.xtv.2| |.xtv.3| |.xpv.1| |.xpv.2|))))
(assert (forall ((|A_8| Int) (|.y.16| Int) (|.y.17| Int) (|B_8| (Array Int Int)) (|C_7| Int) (|D_7| (Array Int Int)) (|E_7| Int) (|F_7| Int) (|.y.18| Int) (|.y.19| Int) (|G_7| (Array Int Int)) (|.y.20| (Array Int Int)) (|.y.21| (Array Int Int)) (|H_7| Int) (|.y.22| Int) (|.y.23| Int) (|.y.24| (Array Int Int)) (|.y.25| (Array Int Int)) (|.loc.26| Bool) (|.loc.27| Bool) (|.loc.28| Bool) (|L_8| Int) (|J_8| Int) (|U_0| Int) (|J_9| Int) (|L_9| Int) (|.x.61| (Array Int Int)) (|.x.62| Int) (|.x.63| (Array Int Int)) (|.x.64| Int) (|M_7| Int) (|.loc.41| Bool) (|.y.33| (Array Int Int)) (|.y.36| Int) (|.loc.42| Bool) (|.loc.43| Bool) (|.y.37| Int) (|.y.39| (Array Int Int)) (|.x.60| Int) (|.y.40| (Array Int Int)) (|.y.38| Int) (|.y.31| Int) (|.y.29| Int) (|.y.32| Int) (|.y.30| Int) (|.y.35| (Array Int Int)) (|.y.34| (Array Int Int)) (|.xtv.1| Int) (|.xtv.2| Int) (|.xtv.3| Int) (|.xpv.1| Int) (|.xpv.2| Int)) (=> (state |A_8| |.y.16| |.y.17| |B_8| |C_7| |D_7| |E_7| |F_7| |.y.18| |.y.19| |G_7| |.y.20| |.y.21| |H_7| |.y.22| |.y.23| |.y.24| |.y.25| |.loc.26| |.loc.27| |.loc.28| |L_8| |J_8| |U_0| |J_9| |L_9|) (let ((.def_60 (<= C_7 0))) (let ((.def_62 (<= A_8 0))) (not (and (and .loc.28 (and .loc.26 (not .loc.27))) (and (and (and (not (= (select B_8 J_9) (select D_7 L_9))) (and (and (and (not .def_60) (and (not .def_62) (not (<= F_7 E_7)))) (= (+ A_8 (+ E_7 (* (- 1) J_9))) 0)) (= (+ C_7 (+ E_7 (* (- 1) L_9))) 0))) (or .def_60 (not (<= L_9 0)))) (or .def_62 (not (<= J_9 0)))))))))))
(check-sat)
